projected/problems_b25_r0_d7_m100_s666/_DIMACS/b25_d7_r0_s666_017.cnf
p cnf 271 485 25
c p show 1 2 3 4 5 6 7 8 9 10 11 12 13 14 15 16 17 18 19 20 21 22 23 24 25
-26 2 -5 0
-27 7 0
-27 8 0
-28 27 26 0
-29 -14 0
-29 25 0
-30 -22 18 0
-31 30 29 0
-32 31 28 0
-33 8 0
-33 3 0
-34 -10 13 0
-35 34 0
-35 33 0
-36 11 0
-36 24 0
-37 -24 0
-37 -11 0
-38 37 36 0
-39 24 23 0
-40 39 38 0
-41 40 35 0
-42 -11 -24 0
-43 24 11 0
-44 43 0
-44 42 0
-45 -24 0
-45 -23 0
-46 45 0
-46 44 0
-47 -8 -3 0
-48 10 0
-48 -13 0
-49 48 47 0
-50 49 46 0
-51 50 0
-51 41 0
-52 51 32 0
-53 -24 0
-53 4 0
-54 -3 0
-54 1 0
-55 54 0
-55 53 0
-56 15 12 0
-57 -12 -15 0
-58 57 0
-58 56 0
-59 -17 -4 0
-60 59 58 0
-61 60 0
-61 55 0
-62 6 0
-62 9 0
-63 8 -25 0
-64 63 62 0
-65 14 0
-65 12 0
-66 23 0
-66 -24 0
-67 66 65 0
-68 67 64 0
-69 68 0
-69 61 0
-70 69 52 0
-71 -22 0
-71 16 0
-72 -7 3 0
-73 72 0
-73 71 0
-74 7 0
-74 -3 0
-75 22 -16 0
-76 75 0
-76 74 0
-77 76 73 0
-78 10 0
-78 -23 0
-79 18 -24 0
-80 79 78 0
-81 80 0
-81 77 0
-82 9 -14 0
-83 -8 0
-83 25 0
-84 83 0
-84 82 0
-85 -5 0
-85 -6 0
-86 -19 -16 0
-87 86 85 0
-88 87 84 0
-89 88 81 0
-90 -17 0
-90 -20 0
-91 -19 0
-91 -17 0
-92 91 0
-92 90 0
-93 7 0
-93 -12 0
-94 2 -2 0
-95 94 0
-96 95 93 0
-97 96 92 0
-98 2 -7 0
-99 -9 17 0
-100 99 98 0
-101 2 5 0
-102 -5 -2 0
-103 102 0
-103 101 0
-104 24 12 0
-105 104 103 0
-106 -24 0
-106 -12 0
-107 -2 0
-107 -5 0
-108 5 0
-108 2 0
-109 108 107 0
-110 109 106 0
-111 110 0
-111 105 0
-112 111 0
-112 100 0
-113 112 97 0
-114 113 0
-114 89 0
-115 114 70 0
-116 74 75 0
-117 71 72 0
-118 117 0
-118 116 0
-119 -10 23 0
-120 -18 0
-120 24 0
-121 120 0
-121 119 0
-122 121 118 0
-123 -9 0
-123 14 0
-124 63 123 0
-125 5 6 0
-126 19 0
-126 16 0
-127 126 0
-127 125 0
-128 127 0
-128 124 0
-129 128 0
-129 122 0
-130 17 20 0
-131 19 17 0
-132 131 130 0
-133 -7 12 0
-134 -2 0
-134 2 0
-135 134 0
-136 135 0
-136 133 0
-137 136 0
-137 132 0
-138 -2 0
-138 7 0
-139 9 0
-139 -17 0
-140 139 0
-140 138 0
-141 106 0
-141 109 0
-142 103 0
-142 104 0
-143 142 141 0
-144 143 140 0
-145 144 0
-145 137 0
-146 145 129 0
-147 -2 0
-147 5 0
-148 -7 -8 0
-149 148 0
-149 147 0
-150 14 -25 0
-151 22 0
-151 -18 0
-152 151 0
-152 150 0
-153 152 0
-153 149 0
-154 46 0
-154 49 0
-155 35 0
-155 40 0
-156 155 154 0
-157 156 0
-157 153 0
-158 24 -4 0
-159 3 -1 0
-160 159 158 0
-161 -15 0
-161 -12 0
-162 12 0
-162 15 0
-163 162 161 0
-164 17 0
-164 4 0
-165 164 0
-165 163 0
-166 165 160 0
-167 -6 -9 0
-168 83 0
-168 167 0
-169 -14 -12 0
-170 -23 24 0
-171 170 0
-171 169 0
-172 171 0
-172 168 0
-173 172 166 0
-174 173 0
-174 157 0
-175 174 146 0
-176 175 0
-176 115 0
-177 -11 0
-177 -13 0
-178 -24 6 0
-179 178 177 0
-180 -19 19 0
-181 -3 -8 0
-182 181 180 0
-183 182 0
-183 179 0
-184 -24 0
-184 -10 0
-185 9 0
-186 185 0
-186 184 0
-187 25 7 0
-188 7 0
-188 -14 0
-189 188 187 0
-190 189 186 0
-191 190 183 0
-192 18 0
-192 -15 0
-193 -23 21 0
-194 193 0
-194 192 0
-195 2 -6 0
-196 -21 -14 0
-197 196 0
-197 195 0
-198 21 0
-198 14 0
-199 -2 0
-199 6 0
-200 199 0
-200 198 0
-201 200 197 0
-202 201 194 0
-203 18 0
-203 21 0
-204 -19 21 0
-205 204 203 0
-206 7 25 0
-207 -12 0
-207 -4 0
-208 207 0
-208 206 0
-209 12 4 0
-210 -7 0
-210 -25 0
-211 210 0
-211 209 0
-212 211 208 0
-213 212 0
-213 205 0
-214 213 0
-214 202 0
-215 214 0
-215 191 0
-216 -7 -24 0
-217 18 -14 0
-218 217 216 0
-219 19 -25 0
-220 19 0
-220 -13 0
-221 220 219 0
-222 221 0
-222 218 0
-223 -12 15 0
-224 -6 -21 0
-225 224 0
-225 223 0
-226 16 -7 0
-227 -12 -23 0
-228 23 12 0
-229 228 0
-229 227 0
-230 229 0
-230 226 0
-231 230 0
-231 225 0
-232 231 222 0
-233 12 0
-233 -15 0
-234 6 0
-234 21 0
-235 234 233 0
-236 -16 0
-236 7 0
-237 12 0
-237 23 0
-238 -23 0
-238 -12 0
-239 238 237 0
-240 239 236 0
-241 240 235 0
-242 7 0
-242 24 0
-243 -18 0
-243 14 0
-244 243 0
-244 242 0
-245 -19 0
-245 25 0
-246 -19 13 0
-247 246 0
-247 245 0
-248 247 244 0
-249 248 241 0
-250 249 0
-250 232 0
-251 5 3 0
-252 -9 -18 0
-253 252 0
-253 251 0
-254 -25 0
-255 -20 0
-255 24 0
-256 255 0
-256 254 0
-257 256 0
-257 253 0
-258 -9 0
-258 -11 0
-259 -8 -9 0
-260 259 0
-260 258 0
-261 -17 -8 0
-262 4 -11 0
-263 262 261 0
-264 -4 0
-264 11 0
-265 17 0
-265 8 0
-266 265 264 0
-267 266 0
-267 263 0
-268 267 260 0
-269 268 0
-269 257 0
-270 269 0
-270 250 0
-271 270 0
-271 215 0
271 176 0
-74 -72 0
-72 -74 0
-75 -71 0
-118 -77 0
-119 -78 0
-78 -119 0
-79 -120 0
-80 -121 0
-121 -80 0
-122 -81 0
-81 -122 0
-123 -82 0
-83 -63 0
-63 -83 0
-124 -84 0
-125 -85 0
-126 -86 0
-127 -87 0
-128 -88 0
-88 -128 0
-89 -129 0
-90 -130 0
-131 -91 0
-91 -131 0
-92 -132 0
-132 -92 0
-133 -93 0
-95 -135 0
-135 -95 0
-136 -96 0
-137 -97 0
-138 -98 0
-98 -138 0
-99 -139 0
-100 -140 0
-106 -104 0
-103 -109 0
-111 -143 0
-112 -144 0
-144 -112 0
-145 -113 0
-113 -145 0
-114 -146 0
-146 -114 0
-26 -147 0
-148 -27 0
-27 -148 0
-28 -149 0
-149 -28 0
-29 -150 0
-151 -30 0
-30 -151 0
-31 -152 0
-152 -31 0
-153 -32 0
-44 -38 0
-45 -39 0
-46 -40 0
-47 -33 0
-33 -47 0
-34 -48 0
-35 -49 0
-51 -156 0
-156 -51 0
-157 -52 0
-158 -53 0
-159 -54 0
-160 -55 0
-58 -163 0
-163 -58 0
-59 -164 0
-164 -59 0
-165 -60 0
-166 -61 0
-167 -62 0
-168 -64 0
-64 -168 0
-65 -169 0
-169 -65 0
-170 -66 0
-171 -67 0
-67 -171 0
-68 -172 0
-172 -68 0
-173 -69 0
-174 -70 0
-70 -174 0
-196 -198 0
-199 -195 0
-209 -207 0
-207 -209 0
-206 -210 0
-210 -206 0
-223 -233 0
-224 -234 0
-225 -235 0
-236 -226 0
-229 -239 0
-239 -229 0
-240 -230 0
-230 -240 0
-231 -241 0
-241 -231 0
-216 -242 0
-242 -216 0
-217 -243 0
-243 -217 0
-244 -218 0
-219 -245 0
-245 -219 0
-246 -220 0
-247 -221 0
-248 -222 0
-222 -248 0
-264 -262 0
-261 -265 0
