projected/problems_b25_r0_d7_m100_s666/b25_d7_r0_s666_017.smt2
(set-logic QF_UF)
(declare-fun A0 () Bool)
(declare-fun A1 () Bool)
(declare-fun A2 () Bool)
(declare-fun A3 () Bool)
(declare-fun A4 () Bool)
(declare-fun A5 () Bool)
(declare-fun A6 () Bool)
(declare-fun A7 () Bool)
(declare-fun A8 () Bool)
(declare-fun A9 () Bool)
(declare-fun A10 () Bool)
(declare-fun A11 () Bool)
(declare-fun A12 () Bool)
(declare-fun A13 () Bool)
(declare-fun A14 () Bool)
(declare-fun A15 () Bool)
(declare-fun A16 () Bool)
(declare-fun A17 () Bool)
(declare-fun A18 () Bool)
(declare-fun A19 () Bool)
(declare-fun A20 () Bool)
(declare-fun A21 () Bool)
(declare-fun A22 () Bool)
(declare-fun A23 () Bool)
(declare-fun A24 () Bool)
(assert (let ((.def_0 (not A2))) (let ((.def_1 (and A6 .def_0))) (let ((.def_2 (not .def_1))) (let ((.def_3 (not A15))) (let ((.def_4 (or A21 .def_3))) (let ((.def_5 (= .def_4 .def_2))) (let ((.def_6 (not A9))) (let ((.def_7 (or .def_6 A22))) (let ((.def_8 (not .def_7))) (let ((.def_9 (not A23))) (let ((.def_10 (or A17 .def_9))) (let ((.def_11 (or .def_10 .def_8))) (let ((.def_12 (not .def_11))) (let ((.def_13 (or .def_12 .def_5))) (let ((.def_14 (not .def_13))) (let ((.def_15 (not A8))) (let ((.def_16 (and .def_15 A13))) (let ((.def_17 (not A7))) (let ((.def_18 (and .def_17 A24))) (let ((.def_19 (not .def_18))) (let ((.def_20 (or .def_19 .def_16))) (let ((.def_21 (or A4 A5))) (let ((.def_22 (and A18 A15))) (let ((.def_23 (and .def_22 .def_21))) (let ((.def_24 (and .def_23 .def_20))) (let ((.def_25 (not .def_24))) (let ((.def_26 (or .def_25 .def_14))) (let ((.def_27 (not A19))) (let ((.def_28 (not A16))) (let ((.def_29 (and .def_28 .def_27))) (let ((.def_30 (or A18 A16))) (let ((.def_31 (not .def_30))) (let ((.def_32 (and .def_31 .def_29))) (let ((.def_33 (not .def_32))) (let ((.def_34 (not A6))) (let ((.def_35 (or .def_34 A11))) (let ((.def_36 (not A1))) (let ((.def_37 (= .def_36 .def_36))) (let ((.def_38 (not .def_37))) (let ((.def_39 (and .def_38 .def_35))) (let ((.def_40 (and .def_39 .def_33))) (let ((.def_41 (and .def_36 A6))) (let ((.def_42 (not .def_41))) (let ((.def_43 (or .def_15 A16))) (let ((.def_44 (or .def_43 .def_42))) (let ((.def_45 (not A11))) (let ((.def_46 (and .def_9 .def_45))) (let ((.def_47 (= A4 .def_36))) (let ((.def_48 (= .def_47 .def_46))) (let ((.def_49 (and .def_48 .def_44))) (let ((.def_50 (not .def_49))) (let ((.def_51 (and .def_50 .def_40))) (let ((.def_52 (not .def_51))) (let ((.def_53 (and .def_52 .def_26))) (let ((.def_54 (not .def_53))) (let ((.def_55 (not A4))) (let ((.def_56 (or A1 .def_55))) (let ((.def_57 (or .def_34 .def_17))) (let ((.def_58 (not .def_57))) (let ((.def_59 (or .def_58 .def_56))) (let ((.def_60 (not .def_59))) (let ((.def_61 (not A13))) (let ((.def_62 (and .def_61 A24))) (let ((.def_63 (not A17))) (let ((.def_64 (and A21 .def_63))) (let ((.def_65 (not .def_64))) (let ((.def_66 (or .def_65 .def_62))) (let ((.def_67 (not .def_66))) (let ((.def_68 (and .def_67 .def_60))) (let ((.def_69 (= .def_9 A10))) (let ((.def_70 (not A22))) (let ((.def_71 (and .def_9 .def_70))) (let ((.def_72 (and .def_71 .def_69))) (let ((.def_73 (or .def_17 .def_0))) (let ((.def_74 (not .def_73))) (let ((.def_75 (or .def_6 A12))) (let ((.def_76 (and .def_75 .def_74))) (let ((.def_77 (= .def_76 .def_72))) (let ((.def_78 (not .def_77))) (let ((.def_79 (and .def_78 .def_68))) (let ((.def_80 (not A3))) (let ((.def_81 (or A23 .def_80))) (let ((.def_82 (not A0))) (let ((.def_83 (or A2 .def_82))) (let ((.def_84 (or .def_83 .def_81))) (let ((.def_85 (not A14))) (let ((.def_86 (= A11 .def_85))) (let ((.def_87 (not .def_86))) (let ((.def_88 (or .def_28 .def_80))) (let ((.def_89 (not .def_88))) (let ((.def_90 (and .def_89 .def_87))) (let ((.def_91 (or .def_90 .def_84))) (let ((.def_92 (not A5))) (let ((.def_93 (or .def_92 .def_15))) (let ((.def_94 (and .def_18 .def_93))) (let ((.def_95 (not .def_94))) (let ((.def_96 (and A13 A11))) (let ((.def_97 (not .def_96))) (let ((.def_98 (or .def_70 A23))) (let ((.def_99 (and .def_98 .def_97))) (let ((.def_100 (not .def_99))) (let ((.def_101 (or .def_100 .def_95))) (let ((.def_102 (not .def_101))) (let ((.def_103 (or .def_102 .def_91))) (let ((.def_104 (and .def_103 .def_79))) (let ((.def_105 (not .def_104))) (let ((.def_106 (= .def_105 .def_54))) (let ((.def_107 (not A12))) (let ((.def_108 (not A10))) (let ((.def_109 (and .def_108 .def_107))) (let ((.def_110 (or .def_9 A5))) (let ((.def_111 (or .def_110 .def_109))) (let ((.def_112 (not A18))) (let ((.def_113 (or .def_112 A18))) (let ((.def_114 (or .def_0 .def_17))) (let ((.def_115 (or .def_114 .def_113))) (let ((.def_116 (and .def_115 .def_111))) (let ((.def_117 (not .def_116))) (let ((.def_118 (and .def_9 .def_6))) (let ((.def_119 (not .def_118))) (let ((.def_120 (or A8 A8))) (let ((.def_121 (not .def_120))) (let ((.def_122 (or .def_121 .def_119))) (let ((.def_123 (not .def_122))) (let ((.def_124 (not A24))) (let ((.def_125 (and .def_124 .def_34))) (let ((.def_126 (not .def_125))) (let ((.def_127 (and A6 .def_61))) (let ((.def_128 (or .def_127 .def_126))) (let ((.def_129 (or .def_128 .def_123))) (let ((.def_130 (not .def_129))) (let ((.def_131 (and .def_130 .def_117))) (let ((.def_132 (not .def_131))) (let ((.def_133 (and A17 .def_85))) (let ((.def_134 (or .def_70 A20))) (let ((.def_135 (and .def_134 .def_133))) (let ((.def_136 (not A20))) (let ((.def_137 (or .def_136 .def_61))) (let ((.def_138 (and .def_36 A5))) (let ((.def_139 (= .def_138 .def_137))) (let ((.def_140 (not .def_139))) (let ((.def_141 (or .def_140 .def_135))) (let ((.def_142 (or .def_63 .def_136))) (let ((.def_143 (or .def_112 A20))) (let ((.def_144 (not .def_143))) (let ((.def_145 (and .def_144 .def_142))) (let ((.def_146 (or A11 A3))) (let ((.def_147 (not .def_146))) (let ((.def_148 (or A6 A24))) (let ((.def_149 (not .def_148))) (let ((.def_150 (= .def_149 .def_147))) (let ((.def_151 (or .def_150 .def_145))) (let ((.def_152 (not .def_151))) (let ((.def_153 (and .def_152 .def_141))) (let ((.def_154 (and .def_153 .def_132))) (let ((.def_155 (or .def_45 A14))) (let ((.def_156 (or .def_92 .def_136))) (let ((.def_157 (and .def_156 .def_155))) (let ((.def_158 (and .def_3 A6))) (let ((.def_159 (= .def_70 A11))) (let ((.def_160 (not .def_159))) (let ((.def_161 (or .def_160 .def_158))) (let ((.def_162 (not .def_161))) (let ((.def_163 (and .def_162 .def_157))) (let ((.def_164 (not .def_163))) (let ((.def_165 (or .def_34 .def_9))) (let ((.def_166 (not .def_165))) (let ((.def_167 (or A17 .def_61))) (let ((.def_168 (not .def_167))) (let ((.def_169 (and .def_168 .def_166))) (let ((.def_170 (or A18 .def_124))) (let ((.def_171 (not .def_170))) (let ((.def_172 (or .def_112 A12))) (let ((.def_173 (and .def_172 .def_171))) (let ((.def_174 (or .def_173 .def_169))) (let ((.def_175 (not .def_174))) (let ((.def_176 (= .def_175 .def_164))) (let ((.def_177 (not .def_176))) (let ((.def_178 (and .def_55 .def_0))) (let ((.def_179 (and A8 A17))) (let ((.def_180 (or .def_179 .def_178))) (let ((.def_181 (not .def_180))) (let ((.def_182 (or .def_124 .def_124))) (let ((.def_183 (not .def_182))) (let ((.def_184 (and .def_27 A23))) (let ((.def_185 (not .def_184))) (let ((.def_186 (or .def_185 .def_183))) (let ((.def_187 (not .def_186))) (let ((.def_188 (and .def_187 .def_181))) (let ((.def_189 (or A8 A10))) (let ((.def_190 (and A7 A8))) (let ((.def_191 (or .def_190 .def_189))) (let ((.def_192 (and .def_80 A10))) (let ((.def_193 (or .def_28 .def_17))) (let ((.def_194 (= .def_193 .def_192))) (let ((.def_195 (not .def_194))) (let ((.def_196 (and .def_195 .def_191))) (let ((.def_197 (not .def_196))) (let ((.def_198 (and .def_197 .def_188))) (let ((.def_199 (not .def_198))) (let ((.def_200 (or .def_199 .def_177))) (let ((.def_201 (not .def_200))) (let ((.def_202 (and .def_201 .def_154))) (let ((.def_203 (or .def_202 .def_106))) .def_203)))))))))))))))))))))))))))))))))))))))))))))))))))))))))))))))))))))))))))))))))))))))))))))))))))))))))))))))))))))))))))))))))))))))))))))))))))))))))))))))))))))))))))))))))))))))))))))))))))))))))))))
(check-sat)
